% seed = 6856939

mint = 49;
% maxt = 215;

nActs = 42;
dur = [0,4,5,8,7,10,4,9,10,9,1,3,10,5,1,5,5,8,10,5,6,9,2,6,1,10,6,1,5,2,4,7,1,4,5,9,1,5,3,2,7,0];

nSkills = 4;
sreq = [| 0,0,0,0,
	| 2,0,3,4,
	| 4,0,5,6,
	| 0,6,5,6,
	| 0,2,4,3,
	| 2,5,4,0,
	| 4,5,5,0,
	| 5,5,0,3,
	| 2,4,0,2,
	| 4,7,0,5,
	| 2,6,6,0,
	| 0,2,3,2,
	| 0,1,4,3,
	| 6,6,0,6,
	| 6,5,0,6,
	| 0,6,4,7,
	| 4,6,0,3,
	| 3,0,7,2,
	| 6,3,0,3,
	| 0,3,2,5,
	| 7,0,3,4,
	| 3,2,2,0,
	| 4,7,5,0,
	| 3,4,7,0,
	| 2,7,0,4,
	| 7,0,2,1,
	| 3,0,5,3,
	| 4,0,7,4,
	| 0,6,4,3,
	| 2,4,0,4,
	| 4,2,0,1,
	| 5,6,0,3,
	| 1,5,0,5,
	| 0,1,3,2,
	| 3,0,2,5,
	| 4,4,0,4,
	| 0,4,7,3,
	| 0,2,2,5,
	| 4,0,3,7,
	| 2,0,3,5,
	| 0,6,2,2,
	| 0,0,0,0, |];

nResources = 45;
mastery = [| true,false,true,false,
	| true,true,false,false,
	| true,true,false,true,
	| false,false,true,false,
	| false,false,true,false,
	| true,true,false,true,
	| false,true,true,false,
	| false,true,true,false,
	| false,true,false,false,
	| false,true,false,false,
	| true,true,true,false,
	| true,true,false,false,
	| false,true,true,false,
	| false,true,true,true,
	| false,false,false,true,
	| true,false,true,true,
	| false,true,true,false,
	| true,false,true,false,
	| true,false,true,true,
	| false,true,true,false,
	| false,true,false,true,
	| true,false,true,false,
	| false,true,true,false,
	| false,true,true,false,
	| true,true,false,true,
	| true,false,false,true,
	| false,true,true,true,
	| true,true,false,false,
	| true,false,false,false,
	| true,false,false,true,
	| true,false,false,false,
	| true,false,false,false,
	| false,false,false,true,
	| false,true,true,false,
	| false,true,false,true,
	| true,true,false,false,
	| true,true,false,true,
	| false,true,false,true,
	| false,false,true,false,
	| true,true,false,false,
	| false,false,true,true,
	| true,true,true,false,
	| true,true,false,false,
	| false,false,true,false,
	| false,false,false,true, |];

nPrecs = 61;
pred = [1,1,1,2,2,2,3,3,3,4,5,5,6,6,6,7,7,8,8,9,10,11,11,12,13,14,14,15,15,15,16,17,18,19,20,21,21,21,22,23,24,25,26,27,27,28,29,30,31,32,33,34,35,36,36,36,37,38,39,40,41];
succ = [2,3,4,11,5,6,19,32,8,16,9,21,29,21,7,10,14,9,12,36,27,13,22,30,15,18,31,33,26,20,17,24,25,34,38,27,23,24,34,28,38,40,39,34,36,35,36,33,41,33,40,41,38,41,37,40,39,39,42,42,42];

nUnrels = 569;
unpred = [2,2,2,2,2,2,2,2,2,3,3,3,3,3,3,3,3,3,3,3,3,3,3,3,3,3,3,3,3,3,3,3,3,3,4,4,4,4,4,4,4,4,4,4,4,4,4,4,4,4,4,4,4,4,4,4,4,4,4,4,4,4,4,4,4,4,5,5,5,5,5,5,5,5,5,5,5,5,5,5,5,5,5,5,5,5,5,5,6,6,6,6,6,6,6,6,6,6,6,6,6,6,6,7,7,7,7,7,7,7,7,7,7,7,7,7,7,7,7,7,7,7,7,7,7,8,8,8,8,8,8,8,8,8,8,8,8,8,8,8,8,8,8,8,8,8,8,8,8,9,9,9,9,9,9,9,9,9,9,9,9,9,9,9,9,9,9,9,9,9,9,9,9,9,9,9,10,10,10,10,10,10,10,10,10,10,10,10,10,10,10,10,10,10,10,10,10,10,10,10,11,11,11,11,11,11,11,11,11,11,11,11,11,11,11,11,11,11,11,12,12,12,12,12,12,12,12,12,12,12,12,12,12,12,12,12,12,12,12,12,12,12,12,12,12,13,13,13,13,13,13,13,13,13,13,13,13,13,13,13,13,13,13,13,13,13,14,14,14,14,14,14,14,14,14,14,14,14,14,14,14,14,14,14,14,14,14,14,15,15,15,15,15,15,15,15,15,15,15,15,15,15,15,15,15,15,15,15,16,16,16,16,16,16,16,16,16,16,16,16,16,16,16,16,16,16,16,16,16,17,17,17,17,17,17,17,17,17,17,17,17,17,17,17,17,17,17,17,17,17,18,18,18,18,18,18,18,18,18,18,18,18,18,18,18,18,18,18,18,18,18,19,19,19,19,19,19,19,19,19,19,19,19,19,19,19,19,19,19,19,19,20,20,20,20,20,20,20,20,20,20,20,20,20,20,20,20,20,20,20,21,21,21,21,21,21,21,21,22,22,22,22,22,22,22,22,22,22,22,22,22,22,22,22,22,23,23,23,23,23,23,23,23,23,23,23,23,23,23,24,24,24,24,24,24,24,24,24,24,24,24,24,24,24,25,25,25,25,25,25,25,25,25,25,25,25,25,25,25,26,26,26,26,26,26,26,26,26,26,26,26,26,26,27,27,27,27,27,27,27,27,28,28,28,28,28,28,28,28,28,28,29,29,29,29,29,29,29,30,30,30,30,30,30,30,30,30,31,31,31,31,31,31,31,31,31,32,32,32,32,32,32,32,33,33,33,33,33,33,33,34,34,34,34,34,34,35,35,35,35,36,37,37,37,38,38,39,39,40];
unsucc = [3,4,8,12,16,17,19,30,32,4,5,6,7,10,11,13,14,15,16,17,18,20,21,22,23,24,25,26,27,28,29,31,35,38,5,6,7,8,9,10,11,12,13,14,15,18,19,20,21,22,23,25,26,27,28,29,30,31,32,33,34,35,36,37,40,41,6,7,8,10,11,12,13,14,15,16,17,18,19,20,22,25,26,29,30,31,32,33,8,9,11,12,13,15,16,17,19,20,22,26,30,32,33,8,9,11,12,13,15,16,17,19,20,21,22,23,24,26,28,29,30,32,33,35,38,10,11,13,14,15,16,17,18,19,20,21,22,23,24,25,26,27,28,29,31,32,34,35,38,10,11,12,13,14,15,16,17,18,19,20,21,22,23,24,25,26,27,28,29,30,31,32,33,34,35,38,11,12,13,14,15,16,17,18,19,20,21,22,23,24,25,26,28,29,30,31,32,33,35,38,12,14,16,17,18,19,21,23,24,25,27,28,29,30,31,32,35,36,37,13,14,15,16,17,18,19,20,21,22,23,24,25,26,27,28,29,31,32,34,35,36,37,38,39,41,14,16,17,18,19,21,22,23,24,25,27,28,29,30,31,32,34,35,36,37,41,15,16,17,19,20,21,22,23,24,26,27,28,29,30,32,33,34,35,36,37,38,39,16,17,18,19,21,22,23,24,25,27,28,29,30,31,32,34,35,36,37,41,18,19,20,21,22,23,25,26,27,28,29,30,31,32,33,34,35,36,37,40,41,18,19,20,21,22,23,25,26,27,28,29,30,31,32,33,34,35,36,37,40,41,19,20,21,22,23,24,26,27,28,29,30,31,32,33,34,35,36,37,38,39,41,20,21,22,23,24,25,26,27,28,29,30,31,32,33,35,36,37,38,39,40,21,22,23,24,25,26,27,28,29,30,31,32,33,34,35,36,37,40,41,22,25,26,29,30,31,32,33,23,24,25,26,27,28,29,30,31,32,33,35,36,37,38,39,40,24,25,26,27,29,30,31,32,33,34,36,37,40,41,25,26,27,28,29,30,31,32,33,34,35,36,37,40,41,26,27,28,29,30,31,32,33,34,35,36,37,38,39,41,27,28,29,30,31,32,33,34,35,36,37,38,40,41,28,29,30,31,32,33,35,38,29,30,31,32,33,34,36,37,40,41,30,31,32,33,34,35,38,31,32,34,35,36,37,38,39,41,32,33,34,35,36,37,38,39,40,34,35,36,37,38,39,41,34,35,36,37,38,39,41,35,36,37,38,39,40,36,37,40,41,38,38,40,41,40,41,40,41,41];

USEFUL_RES = [{},
	{1,2,3,4,5,6,7,8,11,12,13,14,15,16,17,18,19,20,21,22,23,24,25,26,27,28,29,30,31,32,33,34,35,36,37,38,39,40,41,42,43,44,45},
	{1,2,3,4,5,6,7,8,11,12,13,14,15,16,17,18,19,20,21,22,23,24,25,26,27,28,29,30,31,32,33,34,35,36,37,38,39,40,41,42,43,44,45},
	{1,2,3,4,5,6,7,8,9,10,11,12,13,14,15,16,17,18,19,20,21,22,23,24,25,26,27,28,30,33,34,35,36,37,38,39,40,41,42,43,44,45},
	{1,2,3,4,5,6,7,8,9,10,11,12,13,14,15,16,17,18,19,20,21,22,23,24,25,26,27,28,30,33,34,35,36,37,38,39,40,41,42,43,44,45},
	{1,2,3,4,5,6,7,8,9,10,11,12,13,14,16,17,18,19,20,21,22,23,24,25,26,27,28,29,30,31,32,34,35,36,37,38,39,40,41,42,43,44},
	{1,2,3,4,5,6,7,8,9,10,11,12,13,14,16,17,18,19,20,21,22,23,24,25,26,27,28,29,30,31,32,34,35,36,37,38,39,40,41,42,43,44},
	{1,2,3,6,7,8,9,10,11,12,13,14,15,16,17,18,19,20,21,22,23,24,25,26,27,28,29,30,31,32,33,34,35,36,37,38,40,41,42,43,45},
	{1,2,3,6,7,8,9,10,11,12,13,14,15,16,17,18,19,20,21,22,23,24,25,26,27,28,29,30,31,32,33,34,35,36,37,38,40,41,42,43,45},
	{1,2,3,6,7,8,9,10,11,12,13,14,15,16,17,18,19,20,21,22,23,24,25,26,27,28,29,30,31,32,33,34,35,36,37,38,40,41,42,43,45},
	{1,2,3,4,5,6,7,8,9,10,11,12,13,14,16,17,18,19,20,21,22,23,24,25,26,27,28,29,30,31,32,34,35,36,37,38,39,40,41,42,43,44},
	{1,2,3,4,5,6,7,8,9,10,11,12,13,14,15,16,17,18,19,20,21,22,23,24,25,26,27,28,30,33,34,35,36,37,38,39,40,41,42,43,44,45},
	{1,2,3,4,5,6,7,8,9,10,11,12,13,14,15,16,17,18,19,20,21,22,23,24,25,26,27,28,30,33,34,35,36,37,38,39,40,41,42,43,44,45},
	{1,2,3,6,7,8,9,10,11,12,13,14,15,16,17,18,19,20,21,22,23,24,25,26,27,28,29,30,31,32,33,34,35,36,37,38,40,41,42,43,45},
	{1,2,3,6,7,8,9,10,11,12,13,14,15,16,17,18,19,20,21,22,23,24,25,26,27,28,29,30,31,32,33,34,35,36,37,38,40,41,42,43,45},
	{1,2,3,4,5,6,7,8,9,10,11,12,13,14,15,16,17,18,19,20,21,22,23,24,25,26,27,28,30,33,34,35,36,37,38,39,40,41,42,43,44,45},
	{1,2,3,6,7,8,9,10,11,12,13,14,15,16,17,18,19,20,21,22,23,24,25,26,27,28,29,30,31,32,33,34,35,36,37,38,40,41,42,43,45},
	{1,2,3,4,5,6,7,8,11,12,13,14,15,16,17,18,19,20,21,22,23,24,25,26,27,28,29,30,31,32,33,34,35,36,37,38,39,40,41,42,43,44,45},
	{1,2,3,6,7,8,9,10,11,12,13,14,15,16,17,18,19,20,21,22,23,24,25,26,27,28,29,30,31,32,33,34,35,36,37,38,40,41,42,43,45},
	{1,2,3,4,5,6,7,8,9,10,11,12,13,14,15,16,17,18,19,20,21,22,23,24,25,26,27,28,30,33,34,35,36,37,38,39,40,41,42,43,44,45},
	{1,2,3,4,5,6,7,8,11,12,13,14,15,16,17,18,19,20,21,22,23,24,25,26,27,28,29,30,31,32,33,34,35,36,37,38,39,40,41,42,43,44,45},
	{1,2,3,4,5,6,7,8,9,10,11,12,13,14,16,17,18,19,20,21,22,23,24,25,26,27,28,29,30,31,32,34,35,36,37,38,39,40,41,42,43,44},
	{1,2,3,4,5,6,7,8,9,10,11,12,13,14,16,17,18,19,20,21,22,23,24,25,26,27,28,29,30,31,32,34,35,36,37,38,39,40,41,42,43,44},
	{1,2,3,4,5,6,7,8,9,10,11,12,13,14,16,17,18,19,20,21,22,23,24,25,26,27,28,29,30,31,32,34,35,36,37,38,39,40,41,42,43,44},
	{1,2,3,6,7,8,9,10,11,12,13,14,15,16,17,18,19,20,21,22,23,24,25,26,27,28,29,30,31,32,33,34,35,36,37,38,40,41,42,43,45},
	{1,2,3,4,5,6,7,8,11,12,13,14,15,16,17,18,19,20,21,22,23,24,25,26,27,28,29,30,31,32,33,34,35,36,37,38,39,40,41,42,43,44,45},
	{1,2,3,4,5,6,7,8,11,12,13,14,15,16,17,18,19,20,21,22,23,24,25,26,27,28,29,30,31,32,33,34,35,36,37,38,39,40,41,42,43,44,45},
	{1,2,3,4,5,6,7,8,11,12,13,14,15,16,17,18,19,20,21,22,23,24,25,26,27,28,29,30,31,32,33,34,35,36,37,38,39,40,41,42,43,44,45},
	{1,2,3,4,5,6,7,8,9,10,11,12,13,14,15,16,17,18,19,20,21,22,23,24,25,26,27,28,30,33,34,35,36,37,38,39,40,41,42,43,44,45},
	{1,2,3,6,7,8,9,10,11,12,13,14,15,16,17,18,19,20,21,22,23,24,25,26,27,28,29,30,31,32,33,34,35,36,37,38,40,41,42,43,45},
	{1,2,3,6,7,8,9,10,11,12,13,14,15,16,17,18,19,20,21,22,23,24,25,26,27,28,29,30,31,32,33,34,35,36,37,38,40,41,42,43,45},
	{1,2,3,6,7,8,9,10,11,12,13,14,15,16,17,18,19,20,21,22,23,24,25,26,27,28,29,30,31,32,33,34,35,36,37,38,40,41,42,43,45},
	{1,2,3,6,7,8,9,10,11,12,13,14,15,16,17,18,19,20,21,22,23,24,25,26,27,28,29,30,31,32,33,34,35,36,37,38,40,41,42,43,45},
	{1,2,3,4,5,6,7,8,9,10,11,12,13,14,15,16,17,18,19,20,21,22,23,24,25,26,27,28,30,33,34,35,36,37,38,39,40,41,42,43,44,45},
	{1,2,3,4,5,6,7,8,11,12,13,14,15,16,17,18,19,20,21,22,23,24,25,26,27,28,29,30,31,32,33,34,35,36,37,38,39,40,41,42,43,44,45},
	{1,2,3,6,7,8,9,10,11,12,13,14,15,16,17,18,19,20,21,22,23,24,25,26,27,28,29,30,31,32,33,34,35,36,37,38,40,41,42,43,45},
	{1,2,3,4,5,6,7,8,9,10,11,12,13,14,15,16,17,18,19,20,21,22,23,24,25,26,27,28,30,33,34,35,36,37,38,39,40,41,42,43,44,45},
	{1,2,3,4,5,6,7,8,9,10,11,12,13,14,15,16,17,18,19,20,21,22,23,24,25,26,27,28,30,33,34,35,36,37,38,39,40,41,42,43,44,45},
	{1,2,3,4,5,6,7,8,11,12,13,14,15,16,17,18,19,20,21,22,23,24,25,26,27,28,29,30,31,32,33,34,35,36,37,38,39,40,41,42,43,44,45},
	{1,2,3,4,5,6,7,8,11,12,13,14,15,16,17,18,19,20,21,22,23,24,25,26,27,28,29,30,31,32,33,34,35,36,37,38,39,40,41,42,43,44,45},
	{1,2,3,4,5,6,7,8,9,10,11,12,13,14,15,16,17,18,19,20,21,22,23,24,25,26,27,28,30,33,34,35,36,37,38,39,40,41,42,43,44,45},
	{}];

POTENTIAL_ACT = [{2,3,4,5,6,7,8,9,10,11,12,13,14,15,16,17,18,19,20,21,22,23,24,25,26,27,28,29,30,31,32,33,34,35,36,37,38,39,40,41},
	{2,3,4,5,6,7,8,9,10,11,12,13,14,15,16,17,18,19,20,21,22,23,24,25,26,27,28,29,30,31,32,33,34,35,36,37,38,39,40,41},
	{2,3,4,5,6,7,8,9,10,11,12,13,14,15,16,17,18,19,20,21,22,23,24,25,26,27,28,29,30,31,32,33,34,35,36,37,38,39,40,41},
	{2,3,4,5,6,7,11,12,13,16,18,20,21,22,23,24,26,27,28,29,34,35,37,38,39,40,41},
	{2,3,4,5,6,7,11,12,13,16,18,20,21,22,23,24,26,27,28,29,34,35,37,38,39,40,41},
	{2,3,4,5,6,7,8,9,10,11,12,13,14,15,16,17,18,19,20,21,22,23,24,25,26,27,28,29,30,31,32,33,34,35,36,37,38,39,40,41},
	{2,3,4,5,6,7,8,9,10,11,12,13,14,15,16,17,18,19,20,21,22,23,24,25,26,27,28,29,30,31,32,33,34,35,36,37,38,39,40,41},
	{2,3,4,5,6,7,8,9,10,11,12,13,14,15,16,17,18,19,20,21,22,23,24,25,26,27,28,29,30,31,32,33,34,35,36,37,38,39,40,41},
	{4,5,6,7,8,9,10,11,12,13,14,15,16,17,19,20,22,23,24,25,29,30,31,32,33,34,36,37,38,41},
	{4,5,6,7,8,9,10,11,12,13,14,15,16,17,19,20,22,23,24,25,29,30,31,32,33,34,36,37,38,41},
	{2,3,4,5,6,7,8,9,10,11,12,13,14,15,16,17,18,19,20,21,22,23,24,25,26,27,28,29,30,31,32,33,34,35,36,37,38,39,40,41},
	{2,3,4,5,6,7,8,9,10,11,12,13,14,15,16,17,18,19,20,21,22,23,24,25,26,27,28,29,30,31,32,33,34,35,36,37,38,39,40,41},
	{2,3,4,5,6,7,8,9,10,11,12,13,14,15,16,17,18,19,20,21,22,23,24,25,26,27,28,29,30,31,32,33,34,35,36,37,38,39,40,41},
	{2,3,4,5,6,7,8,9,10,11,12,13,14,15,16,17,18,19,20,21,22,23,24,25,26,27,28,29,30,31,32,33,34,35,36,37,38,39,40,41},
	{2,3,4,5,8,9,10,12,13,14,15,16,17,18,19,20,21,25,26,27,28,29,30,31,32,33,34,35,36,37,38,39,40,41},
	{2,3,4,5,6,7,8,9,10,11,12,13,14,15,16,17,18,19,20,21,22,23,24,25,26,27,28,29,30,31,32,33,34,35,36,37,38,39,40,41},
	{2,3,4,5,6,7,8,9,10,11,12,13,14,15,16,17,18,19,20,21,22,23,24,25,26,27,28,29,30,31,32,33,34,35,36,37,38,39,40,41},
	{2,3,4,5,6,7,8,9,10,11,12,13,14,15,16,17,18,19,20,21,22,23,24,25,26,27,28,29,30,31,32,33,34,35,36,37,38,39,40,41},
	{2,3,4,5,6,7,8,9,10,11,12,13,14,15,16,17,18,19,20,21,22,23,24,25,26,27,28,29,30,31,32,33,34,35,36,37,38,39,40,41},
	{2,3,4,5,6,7,8,9,10,11,12,13,14,15,16,17,18,19,20,21,22,23,24,25,26,27,28,29,30,31,32,33,34,35,36,37,38,39,40,41},
	{2,3,4,5,6,7,8,9,10,11,12,13,14,15,16,17,18,19,20,21,22,23,24,25,26,27,28,29,30,31,32,33,34,35,36,37,38,39,40,41},
	{2,3,4,5,6,7,8,9,10,11,12,13,14,15,16,17,18,19,20,21,22,23,24,25,26,27,28,29,30,31,32,33,34,35,36,37,38,39,40,41},
	{2,3,4,5,6,7,8,9,10,11,12,13,14,15,16,17,18,19,20,21,22,23,24,25,26,27,28,29,30,31,32,33,34,35,36,37,38,39,40,41},
	{2,3,4,5,6,7,8,9,10,11,12,13,14,15,16,17,18,19,20,21,22,23,24,25,26,27,28,29,30,31,32,33,34,35,36,37,38,39,40,41},
	{2,3,4,5,6,7,8,9,10,11,12,13,14,15,16,17,18,19,20,21,22,23,24,25,26,27,28,29,30,31,32,33,34,35,36,37,38,39,40,41},
	{2,3,4,5,6,7,8,9,10,11,12,13,14,15,16,17,18,19,20,21,22,23,24,25,26,27,28,29,30,31,32,33,34,35,36,37,38,39,40,41},
	{2,3,4,5,6,7,8,9,10,11,12,13,14,15,16,17,18,19,20,21,22,23,24,25,26,27,28,29,30,31,32,33,34,35,36,37,38,39,40,41},
	{2,3,4,5,6,7,8,9,10,11,12,13,14,15,16,17,18,19,20,21,22,23,24,25,26,27,28,29,30,31,32,33,34,35,36,37,38,39,40,41},
	{2,3,6,7,8,9,10,11,14,15,17,18,19,21,22,23,24,25,26,27,28,30,31,32,33,35,36,39,40},
	{2,3,4,5,6,7,8,9,10,11,12,13,14,15,16,17,18,19,20,21,22,23,24,25,26,27,28,29,30,31,32,33,34,35,36,37,38,39,40,41},
	{2,3,6,7,8,9,10,11,14,15,17,18,19,21,22,23,24,25,26,27,28,30,31,32,33,35,36,39,40},
	{2,3,6,7,8,9,10,11,14,15,17,18,19,21,22,23,24,25,26,27,28,30,31,32,33,35,36,39,40},
	{2,3,4,5,8,9,10,12,13,14,15,16,17,18,19,20,21,25,26,27,28,29,30,31,32,33,34,35,36,37,38,39,40,41},
	{2,3,4,5,6,7,8,9,10,11,12,13,14,15,16,17,18,19,20,21,22,23,24,25,26,27,28,29,30,31,32,33,34,35,36,37,38,39,40,41},
	{2,3,4,5,6,7,8,9,10,11,12,13,14,15,16,17,18,19,20,21,22,23,24,25,26,27,28,29,30,31,32,33,34,35,36,37,38,39,40,41},
	{2,3,4,5,6,7,8,9,10,11,12,13,14,15,16,17,18,19,20,21,22,23,24,25,26,27,28,29,30,31,32,33,34,35,36,37,38,39,40,41},
	{2,3,4,5,6,7,8,9,10,11,12,13,14,15,16,17,18,19,20,21,22,23,24,25,26,27,28,29,30,31,32,33,34,35,36,37,38,39,40,41},
	{2,3,4,5,6,7,8,9,10,11,12,13,14,15,16,17,18,19,20,21,22,23,24,25,26,27,28,29,30,31,32,33,34,35,36,37,38,39,40,41},
	{2,3,4,5,6,7,11,12,13,16,18,20,21,22,23,24,26,27,28,29,34,35,37,38,39,40,41},
	{2,3,4,5,6,7,8,9,10,11,12,13,14,15,16,17,18,19,20,21,22,23,24,25,26,27,28,29,30,31,32,33,34,35,36,37,38,39,40,41},
	{2,3,4,5,6,7,8,9,10,11,12,13,14,15,16,17,18,19,20,21,22,23,24,25,26,27,28,29,30,31,32,33,34,35,36,37,38,39,40,41},
	{2,3,4,5,6,7,8,9,10,11,12,13,14,15,16,17,18,19,20,21,22,23,24,25,26,27,28,29,30,31,32,33,34,35,36,37,38,39,40,41},
	{2,3,4,5,6,7,8,9,10,11,12,13,14,15,16,17,18,19,20,21,22,23,24,25,26,27,28,29,30,31,32,33,34,35,36,37,38,39,40,41},
	{2,3,4,5,6,7,11,12,13,16,18,20,21,22,23,24,26,27,28,29,34,35,37,38,39,40,41},
	{2,3,4,5,8,9,10,12,13,14,15,16,17,18,19,20,21,25,26,27,28,29,30,31,32,33,34,35,36,37,38,39,40,41}];
